(set-logic LIA)
(synth-fun findSum ( (y1 Int) (y2 Int) )Int ((Start Int ( 0 1 2 y1 y2 z (+ Start Start)  (let ((z Int Start)) Start)  (ite BoolExpr Start Start))) (BoolExpr Bool ((< Start Start) (<= Start Start) (> Start Start) (>= Start Start)))))
(declare-var x1 Int)
(declare-var x2 Int)
(constraint (=> (> (+ x1 x2) 15) (= (findSum x1 x2 ) (+ x1 x2))))
(constraint (=> (<= (+ x1 x2) 15) (= (findSum x1 x2 ) 0)))
(check-synth)
